data/processed_heuristic-threshold/instances/1/9/ds_728_courier_487/pairwise.tsp
NAME: ds_728_courier_487
TYPE: TSP
COMMENT: nil
DIMENSION: 10
EDGE_WEIGHT_TYPE: EXPLICIT
EDGE_WEIGHT_FORMAT: FULL_MATRIX
EDGE_WEIGHT_SECTION
9999 3016 3250 3539 2848 2463 3893 4248 2961 2737 
3016 9999 256 650 355 577 881 5941 2602 1812 
3250 256 9999 589 460 830 643 6186 2808 2019 
3539 650 589 9999 992 1090 635 6060 2537 1778 
2848 355 460 992 9999 586 1080 6022 2806 2023 
2463 577 830 1090 586 9999 1454 5438 2260 1495 
3893 881 643 635 1080 1454 9999 6670 3170 2405 
4248 5941 6186 6060 6022 5438 6670 9999 3619 4296 
2961 2602 2808 2537 2806 2260 3170 3619 9999 791 
2737 1812 2019 1778 2023 1495 2405 4296 791 9999 
