data/processed_heuristic-threshold/instances/1/9/ds_728_courier_487/pairwise.sol
10
0 5 4 1 2 6 3 9 8 7 
